NAME : mr22
COMMENT : 22-city problem (DISC)
TYPE : TSP
DIMENSION : 22
EDGE_WEIGHT_TYPE : EUC_2D
NODE_COORD_SECTION
1 21 39
2 49 62
3 43 43
4 86 59
5 18 71
6 34 12
7 28 93
8 70 99
9 23 68
10 82 80
11 2 3
12 57 18
13 82 88
14 75 75
15 19 51
16 1 13
17 78 49
18 96 52
19 71 32
20 30 5
21 77 44
22 69 10
EOF
